param grid_size := 5;
param T := 10;
param no_obstacles := 3;
param initial_velocity_index := 0;

param initial :=
	0	2
	1	1;
	
param landing :=
	0	4
	1	0;
	
param obstacles :
	0   1  :=
0   3   0
1   3   1
2   2   0 ;
